(set-info :source |printed by MathSAT|)
(declare-fun |main::tmp_var_2_int@2| () (_ BitVec 32))
(declare-fun |assume::cond@2| () (_ BitVec 32))
(declare-fun |main::tmp_var_3_int@2| () (_ BitVec 32))
(declare-fun |assume::cond@4| () (_ BitVec 32))
(declare-fun |main::tmp_var_4_int@2| () (_ BitVec 32))
(declare-fun |assume::cond@6| () (_ BitVec 32))
(declare-fun |main::tmp_var_5_int@2| () (_ BitVec 32))
(declare-fun |assume::cond@8| () (_ BitVec 32))
(declare-fun |main::tmp_var_6_int@2| () (_ BitVec 32))
(declare-fun |assume::cond@10| () (_ BitVec 32))
(declare-fun |main::tmp_var_7_int@2| () (_ BitVec 32))
(declare-fun |assume::cond@12| () (_ BitVec 32))
(declare-fun |main::tmp_var_8_int@2| () (_ BitVec 32))
(declare-fun |assume::cond@14| () (_ BitVec 32))
(declare-fun |main::tmp_var_9_int@2| () (_ BitVec 32))
(declare-fun |assume::cond@16| () (_ BitVec 32))
(declare-fun |main::myvar0@2| () (_ BitVec 32))
(declare-fun |assume::cond@18| () (_ BitVec 32))
(declare-fun |assume::cond@20| () (_ BitVec 32))
(declare-fun |assume::cond@22| () (_ BitVec 32))
(declare-fun |assume::cond@24| () (_ BitVec 32))
(declare-fun |assume::cond@26| () (_ BitVec 32))
(declare-fun |assume::cond@28| () (_ BitVec 32))
(declare-fun |assume::cond@30| () (_ BitVec 32))
(declare-fun |assume::cond@32| () (_ BitVec 32))
(declare-fun |assume::cond@34| () (_ BitVec 32))
(declare-fun |assume::cond@36| () (_ BitVec 32))
(declare-fun |assume::cond@38| () (_ BitVec 32))
(declare-fun |assume::cond@40| () (_ BitVec 32))
(declare-fun |assume::cond@42| () (_ BitVec 32))
(declare-fun |assume::cond@44| () (_ BitVec 32))
(declare-fun |assume::cond@46| () (_ BitVec 32))
(declare-fun |assume::cond@48| () (_ BitVec 32))
(declare-fun |assume::cond@50| () (_ BitVec 32))
(declare-fun |assume::cond@52| () (_ BitVec 32))
(declare-fun |assume::cond@54| () (_ BitVec 32))
(declare-fun |assume::cond@56| () (_ BitVec 32))
(declare-fun |assume::cond@58| () (_ BitVec 32))
(declare-fun |assume::cond@60| () (_ BitVec 32))
(declare-fun |assume::cond@62| () (_ BitVec 32))
(declare-fun |assume::cond@64| () (_ BitVec 32))
(declare-fun |assume::cond@66| () (_ BitVec 32))
(declare-fun |assume::cond@68| () (_ BitVec 32))
(declare-fun |main::uVar1@37| () (_ BitVec 32))
(declare-fun |assume::cond@70| () (_ BitVec 32))
(declare-fun |main::uVar1@39| () (_ BitVec 32))
(declare-fun |assume::cond@72| () (_ BitVec 32))
(declare-fun |main::uVar1@41| () (_ BitVec 32))
(declare-fun |assume::cond@74| () (_ BitVec 32))
(declare-fun |main::uVar1@43| () (_ BitVec 32))
(declare-fun |assume::cond@76| () (_ BitVec 32))
(assert (let ((.def_900 (= |assume::cond@76| (_ bv0 32))))(let ((.def_902 (not .def_900)))(let ((.def_893 (bvneg |main::uVar1@43|)))(let ((.def_442 (bvneg |main::tmp_var_6_int@2|)))(let ((.def_443 (bvadd |main::tmp_var_5_int@2| .def_442)))(let ((.def_891 (bvxor .def_443 |main::uVar1@43|)))(let ((.def_894 (bvadd .def_891 .def_893)))(let ((.def_895 (= |main::myvar0@2| .def_894)))(let ((.def_896 (ite .def_895 (_ bv1 32) (_ bv0 32))))(let ((.def_898 (= .def_896 |assume::cond@76|)))(let ((.def_444 (bvashr .def_443 (_ bv31 32))))(let ((.def_889 (= .def_444 |main::uVar1@43|)))(let ((.def_884 (= |assume::cond@74| (_ bv0 32))))(let ((.def_886 (not .def_884)))(let ((.def_877 (bvneg |main::uVar1@41|)))(let ((.def_421 (bvneg |main::tmp_var_5_int@2|)))(let ((.def_422 (bvadd |main::tmp_var_4_int@2| .def_421)))(let ((.def_875 (bvxor .def_422 |main::uVar1@41|)))(let ((.def_878 (bvadd .def_875 .def_877)))(let ((.def_879 (= |main::tmp_var_9_int@2| .def_878)))(let ((.def_880 (ite .def_879 (_ bv1 32) (_ bv0 32))))(let ((.def_882 (= .def_880 |assume::cond@74|)))(let ((.def_423 (bvashr .def_422 (_ bv31 32))))(let ((.def_873 (= .def_423 |main::uVar1@41|)))(let ((.def_868 (= |assume::cond@72| (_ bv0 32))))(let ((.def_870 (not .def_868)))(let ((.def_861 (bvneg |main::uVar1@39|)))(let ((.def_400 (bvneg |main::tmp_var_4_int@2|)))(let ((.def_401 (bvadd |main::tmp_var_3_int@2| .def_400)))(let ((.def_859 (bvxor .def_401 |main::uVar1@39|)))(let ((.def_862 (bvadd .def_859 .def_861)))(let ((.def_863 (= |main::tmp_var_8_int@2| .def_862)))(let ((.def_864 (ite .def_863 (_ bv1 32) (_ bv0 32))))(let ((.def_866 (= .def_864 |assume::cond@72|)))(let ((.def_402 (bvashr .def_401 (_ bv31 32))))(let ((.def_857 (= .def_402 |main::uVar1@39|)))(let ((.def_852 (= |assume::cond@70| (_ bv0 32))))(let ((.def_854 (not .def_852)))(let ((.def_845 (bvneg |main::uVar1@37|)))(let ((.def_379 (bvneg |main::tmp_var_3_int@2|)))(let ((.def_380 (bvadd |main::tmp_var_2_int@2| .def_379)))(let ((.def_843 (bvxor .def_380 |main::uVar1@37|)))(let ((.def_846 (bvadd .def_843 .def_845)))(let ((.def_847 (= |main::tmp_var_7_int@2| .def_846)))(let ((.def_848 (ite .def_847 (_ bv1 32) (_ bv0 32))))(let ((.def_850 (= .def_848 |assume::cond@70|)))(let ((.def_381 (bvashr .def_380 (_ bv31 32))))(let ((.def_841 (= .def_381 |main::uVar1@37|)))(let ((.def_836 (= |assume::cond@68| (_ bv0 32))))(let ((.def_838 (not .def_836)))(let ((.def_367 (= |main::tmp_var_9_int@2| |main::myvar0@2|)))(let ((.def_368 (not .def_367)))(let ((.def_369 (ite .def_368 (_ bv1 32) (_ bv0 32))))(let ((.def_834 (= .def_369 |assume::cond@68|)))(let ((.def_829 (= |assume::cond@66| (_ bv0 32))))(let ((.def_831 (not .def_829)))(let ((.def_356 (= |main::tmp_var_8_int@2| |main::myvar0@2|)))(let ((.def_357 (not .def_356)))(let ((.def_358 (ite .def_357 (_ bv1 32) (_ bv0 32))))(let ((.def_827 (= .def_358 |assume::cond@66|)))(let ((.def_822 (= |assume::cond@64| (_ bv0 32))))(let ((.def_824 (not .def_822)))(let ((.def_345 (= |main::tmp_var_8_int@2| |main::tmp_var_9_int@2|)))(let ((.def_346 (not .def_345)))(let ((.def_347 (ite .def_346 (_ bv1 32) (_ bv0 32))))(let ((.def_820 (= .def_347 |assume::cond@64|)))(let ((.def_815 (= |assume::cond@62| (_ bv0 32))))(let ((.def_817 (not .def_815)))(let ((.def_334 (= |main::tmp_var_7_int@2| |main::myvar0@2|)))(let ((.def_335 (not .def_334)))(let ((.def_336 (ite .def_335 (_ bv1 32) (_ bv0 32))))(let ((.def_813 (= .def_336 |assume::cond@62|)))(let ((.def_808 (= |assume::cond@60| (_ bv0 32))))(let ((.def_810 (not .def_808)))(let ((.def_323 (= |main::tmp_var_7_int@2| |main::tmp_var_9_int@2|)))(let ((.def_324 (not .def_323)))(let ((.def_325 (ite .def_324 (_ bv1 32) (_ bv0 32))))(let ((.def_806 (= .def_325 |assume::cond@60|)))(let ((.def_801 (= |assume::cond@58| (_ bv0 32))))(let ((.def_803 (not .def_801)))(let ((.def_312 (= |main::tmp_var_7_int@2| |main::tmp_var_8_int@2|)))(let ((.def_313 (not .def_312)))(let ((.def_314 (ite .def_313 (_ bv1 32) (_ bv0 32))))(let ((.def_799 (= .def_314 |assume::cond@58|)))(let ((.def_794 (= |assume::cond@56| (_ bv0 32))))(let ((.def_796 (not .def_794)))(let ((.def_301 (= |main::tmp_var_5_int@2| |main::tmp_var_6_int@2|)))(let ((.def_302 (not .def_301)))(let ((.def_303 (ite .def_302 (_ bv1 32) (_ bv0 32))))(let ((.def_792 (= .def_303 |assume::cond@56|)))(let ((.def_787 (= |assume::cond@54| (_ bv0 32))))(let ((.def_789 (not .def_787)))(let ((.def_290 (= |main::tmp_var_4_int@2| |main::tmp_var_6_int@2|)))(let ((.def_291 (not .def_290)))(let ((.def_292 (ite .def_291 (_ bv1 32) (_ bv0 32))))(let ((.def_785 (= .def_292 |assume::cond@54|)))(let ((.def_780 (= |assume::cond@52| (_ bv0 32))))(let ((.def_782 (not .def_780)))(let ((.def_279 (= |main::tmp_var_4_int@2| |main::tmp_var_5_int@2|)))(let ((.def_280 (not .def_279)))(let ((.def_281 (ite .def_280 (_ bv1 32) (_ bv0 32))))(let ((.def_778 (= .def_281 |assume::cond@52|)))(let ((.def_773 (= |assume::cond@50| (_ bv0 32))))(let ((.def_775 (not .def_773)))(let ((.def_268 (= |main::tmp_var_3_int@2| |main::tmp_var_6_int@2|)))(let ((.def_269 (not .def_268)))(let ((.def_270 (ite .def_269 (_ bv1 32) (_ bv0 32))))(let ((.def_771 (= .def_270 |assume::cond@50|)))(let ((.def_766 (= |assume::cond@48| (_ bv0 32))))(let ((.def_768 (not .def_766)))(let ((.def_257 (= |main::tmp_var_3_int@2| |main::tmp_var_5_int@2|)))(let ((.def_258 (not .def_257)))(let ((.def_259 (ite .def_258 (_ bv1 32) (_ bv0 32))))(let ((.def_764 (= .def_259 |assume::cond@48|)))(let ((.def_759 (= |assume::cond@46| (_ bv0 32))))(let ((.def_761 (not .def_759)))(let ((.def_246 (= |main::tmp_var_3_int@2| |main::tmp_var_4_int@2|)))(let ((.def_247 (not .def_246)))(let ((.def_248 (ite .def_247 (_ bv1 32) (_ bv0 32))))(let ((.def_757 (= .def_248 |assume::cond@46|)))(let ((.def_752 (= |assume::cond@44| (_ bv0 32))))(let ((.def_754 (not .def_752)))(let ((.def_235 (= |main::tmp_var_2_int@2| |main::tmp_var_6_int@2|)))(let ((.def_236 (not .def_235)))(let ((.def_237 (ite .def_236 (_ bv1 32) (_ bv0 32))))(let ((.def_750 (= .def_237 |assume::cond@44|)))(let ((.def_745 (= |assume::cond@42| (_ bv0 32))))(let ((.def_747 (not .def_745)))(let ((.def_224 (= |main::tmp_var_2_int@2| |main::tmp_var_5_int@2|)))(let ((.def_225 (not .def_224)))(let ((.def_226 (ite .def_225 (_ bv1 32) (_ bv0 32))))(let ((.def_743 (= .def_226 |assume::cond@42|)))(let ((.def_738 (= |assume::cond@40| (_ bv0 32))))(let ((.def_740 (not .def_738)))(let ((.def_213 (= |main::tmp_var_2_int@2| |main::tmp_var_4_int@2|)))(let ((.def_214 (not .def_213)))(let ((.def_215 (ite .def_214 (_ bv1 32) (_ bv0 32))))(let ((.def_736 (= .def_215 |assume::cond@40|)))(let ((.def_202 (= |main::tmp_var_2_int@2| |main::tmp_var_3_int@2|)))(let ((.def_203 (not .def_202)))(let ((.def_204 (ite .def_203 (_ bv1 32) (_ bv0 32))))(let ((.def_732 (= .def_204 |assume::cond@38|)))(let ((.def_192 (bvslt |main::myvar0@2| (_ bv5 32))))(let ((.def_193 (ite .def_192 (_ bv1 32) (_ bv0 32))))(let ((.def_729 (= .def_193 |assume::cond@36|)))(let ((.def_182 (bvslt (_ bv0 32) |main::myvar0@2|)))(let ((.def_183 (ite .def_182 (_ bv1 32) (_ bv0 32))))(let ((.def_726 (= .def_183 |assume::cond@34|)))(let ((.def_171 (bvslt |main::tmp_var_9_int@2| (_ bv5 32))))(let ((.def_172 (ite .def_171 (_ bv1 32) (_ bv0 32))))(let ((.def_723 (= .def_172 |assume::cond@32|)))(let ((.def_161 (bvslt (_ bv0 32) |main::tmp_var_9_int@2|)))(let ((.def_162 (ite .def_161 (_ bv1 32) (_ bv0 32))))(let ((.def_720 (= .def_162 |assume::cond@30|)))(let ((.def_150 (bvslt |main::tmp_var_8_int@2| (_ bv5 32))))(let ((.def_151 (ite .def_150 (_ bv1 32) (_ bv0 32))))(let ((.def_717 (= .def_151 |assume::cond@28|)))(let ((.def_140 (bvslt (_ bv0 32) |main::tmp_var_8_int@2|)))(let ((.def_141 (ite .def_140 (_ bv1 32) (_ bv0 32))))(let ((.def_714 (= .def_141 |assume::cond@26|)))(let ((.def_129 (bvslt |main::tmp_var_7_int@2| (_ bv5 32))))(let ((.def_130 (ite .def_129 (_ bv1 32) (_ bv0 32))))(let ((.def_711 (= .def_130 |assume::cond@24|)))(let ((.def_119 (bvslt (_ bv0 32) |main::tmp_var_7_int@2|)))(let ((.def_120 (ite .def_119 (_ bv1 32) (_ bv0 32))))(let ((.def_708 (= .def_120 |assume::cond@22|)))(let ((.def_108 (bvslt |main::tmp_var_6_int@2| (_ bv5 32))))(let ((.def_109 (ite .def_108 (_ bv1 32) (_ bv0 32))))(let ((.def_705 (= .def_109 |assume::cond@20|)))(let ((.def_98 (bvnot |main::tmp_var_6_int@2|)))(let ((.def_99 (bvlshr .def_98 (_ bv31 32))))(let ((.def_702 (= .def_99 |assume::cond@18|)))(let ((.def_87 (bvslt |main::tmp_var_5_int@2| (_ bv5 32))))(let ((.def_88 (ite .def_87 (_ bv1 32) (_ bv0 32))))(let ((.def_699 (= .def_88 |assume::cond@16|)))(let ((.def_77 (bvnot |main::tmp_var_5_int@2|)))(let ((.def_78 (bvlshr .def_77 (_ bv31 32))))(let ((.def_696 (= .def_78 |assume::cond@14|)))(let ((.def_66 (bvslt |main::tmp_var_4_int@2| (_ bv5 32))))(let ((.def_67 (ite .def_66 (_ bv1 32) (_ bv0 32))))(let ((.def_693 (= .def_67 |assume::cond@12|)))(let ((.def_56 (bvnot |main::tmp_var_4_int@2|)))(let ((.def_57 (bvlshr .def_56 (_ bv31 32))))(let ((.def_690 (= .def_57 |assume::cond@10|)))(let ((.def_45 (bvslt |main::tmp_var_3_int@2| (_ bv5 32))))(let ((.def_46 (ite .def_45 (_ bv1 32) (_ bv0 32))))(let ((.def_687 (= .def_46 |assume::cond@8|)))(let ((.def_35 (bvnot |main::tmp_var_3_int@2|)))(let ((.def_36 (bvlshr .def_35 (_ bv31 32))))(let ((.def_684 (= .def_36 |assume::cond@6|)))(let ((.def_24 (bvslt |main::tmp_var_2_int@2| (_ bv5 32))))(let ((.def_25 (ite .def_24 (_ bv1 32) (_ bv0 32))))(let ((.def_681 (= .def_25 |assume::cond@4|)))(let ((.def_16 (= |assume::cond@2| (_ bv0 32))))(let ((.def_20 (not .def_16)))(let ((.def_11 (bvnot |main::tmp_var_2_int@2|)))(let ((.def_13 (bvlshr .def_11 (_ bv31 32))))(let ((.def_15 (= .def_13 |assume::cond@2|)))(let ((.def_21 (and .def_15 .def_20)))(let ((.def_682 (and .def_21 .def_681)))(let ((.def_40 (= |assume::cond@4| (_ bv0 32))))(let ((.def_43 (not .def_40)))(let ((.def_683 (and .def_43 .def_682)))(let ((.def_685 (and .def_683 .def_684)))(let ((.def_61 (= |assume::cond@6| (_ bv0 32))))(let ((.def_64 (not .def_61)))(let ((.def_686 (and .def_64 .def_685)))(let ((.def_688 (and .def_686 .def_687)))(let ((.def_82 (= |assume::cond@8| (_ bv0 32))))(let ((.def_85 (not .def_82)))(let ((.def_689 (and .def_85 .def_688)))(let ((.def_691 (and .def_689 .def_690)))(let ((.def_103 (= |assume::cond@10| (_ bv0 32))))(let ((.def_106 (not .def_103)))(let ((.def_692 (and .def_106 .def_691)))(let ((.def_694 (and .def_692 .def_693)))(let ((.def_124 (= |assume::cond@12| (_ bv0 32))))(let ((.def_127 (not .def_124)))(let ((.def_695 (and .def_127 .def_694)))(let ((.def_697 (and .def_695 .def_696)))(let ((.def_145 (= |assume::cond@14| (_ bv0 32))))(let ((.def_148 (not .def_145)))(let ((.def_698 (and .def_148 .def_697)))(let ((.def_700 (and .def_698 .def_699)))(let ((.def_166 (= |assume::cond@16| (_ bv0 32))))(let ((.def_169 (not .def_166)))(let ((.def_701 (and .def_169 .def_700)))(let ((.def_703 (and .def_701 .def_702)))(let ((.def_187 (= |assume::cond@18| (_ bv0 32))))(let ((.def_190 (not .def_187)))(let ((.def_704 (and .def_190 .def_703)))(let ((.def_706 (and .def_704 .def_705)))(let ((.def_208 (= |assume::cond@20| (_ bv0 32))))(let ((.def_211 (not .def_208)))(let ((.def_707 (and .def_211 .def_706)))(let ((.def_709 (and .def_707 .def_708)))(let ((.def_230 (= |assume::cond@22| (_ bv0 32))))(let ((.def_233 (not .def_230)))(let ((.def_710 (and .def_233 .def_709)))(let ((.def_712 (and .def_710 .def_711)))(let ((.def_252 (= |assume::cond@24| (_ bv0 32))))(let ((.def_255 (not .def_252)))(let ((.def_713 (and .def_255 .def_712)))(let ((.def_715 (and .def_713 .def_714)))(let ((.def_274 (= |assume::cond@26| (_ bv0 32))))(let ((.def_277 (not .def_274)))(let ((.def_716 (and .def_277 .def_715)))(let ((.def_718 (and .def_716 .def_717)))(let ((.def_296 (= |assume::cond@28| (_ bv0 32))))(let ((.def_299 (not .def_296)))(let ((.def_719 (and .def_299 .def_718)))(let ((.def_721 (and .def_719 .def_720)))(let ((.def_318 (= |assume::cond@30| (_ bv0 32))))(let ((.def_321 (not .def_318)))(let ((.def_722 (and .def_321 .def_721)))(let ((.def_724 (and .def_722 .def_723)))(let ((.def_340 (= |assume::cond@32| (_ bv0 32))))(let ((.def_343 (not .def_340)))(let ((.def_725 (and .def_343 .def_724)))(let ((.def_727 (and .def_725 .def_726)))(let ((.def_362 (= |assume::cond@34| (_ bv0 32))))(let ((.def_365 (not .def_362)))(let ((.def_728 (and .def_365 .def_727)))(let ((.def_730 (and .def_728 .def_729)))(let ((.def_394 (= |assume::cond@36| (_ bv0 32))))(let ((.def_397 (not .def_394)))(let ((.def_731 (and .def_397 .def_730)))(let ((.def_733 (and .def_731 .def_732)))(let ((.def_436 (= |assume::cond@38| (_ bv0 32))))(let ((.def_439 (not .def_436)))(let ((.def_734 (and .def_439 .def_733)))(let ((.def_737 (and .def_734 .def_736)))(let ((.def_741 (and .def_737 .def_740)))(let ((.def_744 (and .def_741 .def_743)))(let ((.def_748 (and .def_744 .def_747)))(let ((.def_751 (and .def_748 .def_750)))(let ((.def_755 (and .def_751 .def_754)))(let ((.def_758 (and .def_755 .def_757)))(let ((.def_762 (and .def_758 .def_761)))(let ((.def_765 (and .def_762 .def_764)))(let ((.def_769 (and .def_765 .def_768)))(let ((.def_772 (and .def_769 .def_771)))(let ((.def_776 (and .def_772 .def_775)))(let ((.def_779 (and .def_776 .def_778)))(let ((.def_783 (and .def_779 .def_782)))(let ((.def_786 (and .def_783 .def_785)))(let ((.def_790 (and .def_786 .def_789)))(let ((.def_793 (and .def_790 .def_792)))(let ((.def_797 (and .def_793 .def_796)))(let ((.def_800 (and .def_797 .def_799)))(let ((.def_804 (and .def_800 .def_803)))(let ((.def_807 (and .def_804 .def_806)))(let ((.def_811 (and .def_807 .def_810)))(let ((.def_814 (and .def_811 .def_813)))(let ((.def_818 (and .def_814 .def_817)))(let ((.def_821 (and .def_818 .def_820)))(let ((.def_825 (and .def_821 .def_824)))(let ((.def_828 (and .def_825 .def_827)))(let ((.def_832 (and .def_828 .def_831)))(let ((.def_835 (and .def_832 .def_834)))(let ((.def_839 (and .def_835 .def_838)))(let ((.def_842 (and .def_839 .def_841)))(let ((.def_851 (and .def_842 .def_850)))(let ((.def_855 (and .def_851 .def_854)))(let ((.def_858 (and .def_855 .def_857)))(let ((.def_867 (and .def_858 .def_866)))(let ((.def_871 (and .def_867 .def_870)))(let ((.def_874 (and .def_871 .def_873)))(let ((.def_883 (and .def_874 .def_882)))(let ((.def_887 (and .def_883 .def_886)))(let ((.def_890 (and .def_887 .def_889)))(let ((.def_899 (and .def_890 .def_898)))(let ((.def_903 (and .def_899 .def_902))).def_903))))))))))))))))))))))))))))))))))))))))))))))))))))))))))))))))))))))))))))))))))))))))))))))))))))))))))))))))))))))))))))))))))))))))))))))))))))))))))))))))))))))))))))))))))))))))))))))))))))))))))))))))))))))))))))))))))))))))))))))))))))))))))))))))))))))))))))))))))))))))))))))))))))))))))))))))))))))))))